/* Objective function */
max: 15x1 -4x2 -5x3 +3x4 -x5 +14x6 + 5x7 - 4x8 -4x9 -2x10 -3x11 -3x12 +13x13
 -3x14 -3x15 -3x16 +17x17 -3x18 -2x19 -2x20 -2x21 -2x22 +10x23 +12x24 +13x25
 +38x26 -2x27 -2x28 -x29 -x30 -x31 -x32 -x33 -x34 +9x35 + 7x36 -x37 -x38 -x39
 -x40;

x1-x5<=0;
x1-x6<=0;
x1-x7<=0;
x2-x6<=0;
x2-x7<=0;
x2-x8<=0;
x3-x7<=0;
x3-x8<=0;
x3-x9<=0;
x4-x8<=0;
x4-x9<=0;
x4-x10<=0;
x5-x11<=0;
x5-x12<=0;
x5-x13<=0;
x6-x12<=0;
x6-x13<=0;
x6-x14<=0;
x7-x13<=0;
x7-x14<=0;
x7-x15<=0;
x8-x14<=0;
x8-x15<=0;
x8-x16<=0;
x9-x15<=0;
x9-x16<=0;
x9-x17<=0;
x10-x16<=0;
x10-x17<=0;
x10-x18<=0;
x11-x19<=0;
x11-x20<=0;
x11-x21<=0;
x12-x20<=0;
x12-x21<=0;
x12-x22<=0;
x13-x21<=0;
x13-x22<=0;
x13-x23<=0;
x14-x22<=0;
x14-x23<=0;
x14-x24<=0;
x15-x23<=0;
x15-x24<=0;
x15-x25<=0;
x16-x24<=0;
x16-x25<=0;
x16-x26<=0;
x17-x25<=0;
x17-x26<=0;
x17-x27<=0;
x18-x26<=0;
x18-x27<=0;
x18-x28<=0;
x19-x29<=0;
x19-x30<=0;
x19-x31<=0;
x20-x30<=0;
x20-x31<=0;
x20-x32<=0;
x21-x31<=0;
x21-x32<=0;
x21-x33<=0;
x22-x32<=0;
x22-x33<=0;
x22-x34<=0;
x23-x33<=0;
x23-x34<=0;
x23-x35<=0;
x24-x34<=0;
x24-x35<=0;
x24-x36<=0;
x25-x35<=0;
x25-x36<=0;
x25-x37<=0;
x26-x36<=0;
x26-x37<=0;
x26-x38<=0;
x27-x37<=0;
x27-x38<=0;
x27-x39<=0;
x28-x38<=0;
x28-x39<=0;
x28-x40<=0;


bin x1 x2 x3 x4 x5 x6 x7 x8 x9 x10 x11 x12 x13 x14 x15 x16
x17 x18 x19 x20 x21 x22 x23 x24 x25 x26 x27 x28 x29 x30
x31 x32 x33 x34 x35 x36 x37 x38 x39 x40;

/* Variable bounds */